language Essence 1.3

letting blksize_delta be
        function(1 --> 10, 2 --> 10, 3 --> 10, 4 --> 10, 5 --> 10, 6 --> 10, 7 --> 10, 8 --> 10, 9 --> 10, 10 --> 10,
                 11 --> 10, 12 --> 10, 13 --> 10, 14 --> 10, 15 --> 10, 16 --> 10, 17 --> 10, 18 --> 10, 19 --> 10,
                 20 --> 10, 21 --> 10, 22 --> 10, 23 --> 10, 24 --> 10, 25 --> 10)
letting maxcars be
        function(1 --> 10, 2 --> 9, 3 --> 9, 4 --> 9, 5 --> 9, 6 --> 9, 7 --> 9, 8 --> 9, 9 --> 10, 10 --> 10,
                 11 --> 10, 12 --> 10, 13 --> 9, 14 --> 9, 15 --> 9, 16 --> 9, 17 --> 9, 18 --> 9, 19 --> 9, 20 --> 9,
                 21 --> 9, 22 --> 9, 23 --> 9, 24 --> 9, 25 --> 10)
letting n_cars be 138
letting n_classes be 14
letting n_options be 25
letting quantity be
        function(1 --> 8, 2 --> 10, 3 --> 10, 4 --> 10, 5 --> 10, 6 --> 10, 7 --> 10, 8 --> 10, 9 --> 10, 10 --> 10,
                 11 --> 10, 12 --> 10, 13 --> 10, 14 --> 10)
letting usage be
        relation((1, 7), (1, 11), (1, 13), (2, 4), (2, 7), (2, 9), (2, 19), (3, 2), (3, 17), (3, 20), (4, 5), (4, 12),
                 (4, 18), (4, 20), (5, 2), (5, 3), (5, 6), (5, 7), (5, 9), (5, 10), (5, 12), (5, 13), (5, 16), (5, 22),
                 (6, 1), (6, 4), (6, 10), (6, 19), (6, 22), (7, 3), (7, 5), (7, 6), (7, 14), (7, 18), (7, 23), (8, 2),
                 (8, 3), (8, 5), (8, 8), (8, 10), (8, 11), (8, 20), (9, 7), (9, 8), (9, 11), (9, 14), (9, 24), (10, 5),
                 (10, 7), (10, 9), (10, 11), (10, 17), (10, 21), (10, 25), (11, 4), (11, 6), (11, 10), (11, 18),
                 (11, 19), (11, 24), (12, 3), (12, 15), (12, 20), (13, 1), (13, 3), (13, 5), (13, 6), (13, 7), (13, 8),
                 (13, 10), (13, 11), (13, 15), (13, 18), (13, 19), (13, 20), (13, 22), (14, 3), (14, 4), (14, 6),
                 (14, 10), (14, 25))
$ Visualisation for usage
$  1  7
$  1 11
$  1 13
$  2  4
$  2  7
$  2  9
$  2 19
$  3  2
$  3 17
$  3 20
$  4  5
$  4 12
$  4 18
$  4 20
$  5  2
$  5  3
$  5  6
$  5  7
$  5  9
$  5 10
$  5 12
$  5 13
$  5 16
$  5 22
$  6  1
$  6  4
$  6 10
$  6 19
$  6 22
$  7  3
$  7  5
$  7  6
$  7 14
$  7 18
$  7 23
$  8  2
$  8  3
$  8  5
$  8  8
$  8 10
$  8 11
$  8 20
$  9  7
$  9  8
$  9 11
$  9 14
$  9 24
$ 10  5
$ 10  7
$ 10  9
$ 10 11
$ 10 17
$ 10 21
$ 10 25
$ 11  4
$ 11  6
$ 11 10
$ 11 18
$ 11 19
$ 11 24
$ 12  3
$ 12 15
$ 12 20
$ 13  1
$ 13  3
$ 13  5
$ 13  6
$ 13  7
$ 13  8
$ 13 10
$ 13 11
$ 13 15
$ 13 18
$ 13 19
$ 13 20
$ 13 22
$ 14  3
$ 14  4
$ 14  6
$ 14 10
$ 14 25

